758784
758784
758784
758784
758784
748780
748780
748305
742343
742343
736240
736240
729039
726165
707106
707106
707106
705144
705144
705144
696947
693071
693071
691268
686791
686791
686791
686791
681605
681605
664918
664918
664918
664918
664918
664918
664918
660641
660641
658881
658881
658881
658822
637883
637883
637883
637883
637257
637257
637257
629822
629822
629822
629822
629822
629822
625404
622640
621056
620956
616765
612201
612201
612201
608132
608132
607353
605616
605616
605616
605616
605616
602601
602601
602601
602601
601444
597837
597837
597837
597837
597684
597684
588516
586297
582220
580001
580001
580001
580001
580001
579546
579014
579014
578859
562742
562742
562742
562742
562742
